p cnf 169 594
c p weight -17 1 0
c p weight 17 -1 0
c p weight 21 6.12323399573676603586882014729198302312846062338790031898128063403419218957424163818359375E-17 0
c p weight -21 1 0
c p weight 22 1 0
c p weight -22 1 0
c p weight -19 1 0
c p weight 19 -1 0
c p weight -23 1 0
c p weight 23 -1 0
c p weight -25 1 0
c p weight 25 -1 0
c p weight -26 1 0
c p weight 26 -1 0
c p weight 30 6.12323399573676603586882014729198302312846062338790031898128063403419218957424163818359375E-17 0
c p weight -30 1 0
c p weight 31 1 0
c p weight -31 1 0
c p weight -28 1 0
c p weight 28 -1 0
c p weight -32 1 0
c p weight 32 -1 0
c p weight -34 1 0
c p weight 34 -1 0
c p weight -35 1 0
c p weight 35 -1 0
c p weight 39 6.12323399573676603586882014729198302312846062338790031898128063403419218957424163818359375E-17 0
c p weight -39 1 0
c p weight 40 1 0
c p weight -40 1 0
c p weight -37 1 0
c p weight 37 -1 0
c p weight -41 1 0
c p weight 41 -1 0
c p weight -43 1 0
c p weight 43 -1 0
c p weight 47 6.12323399573676603586882014729198302312846062338790031898128063403419218957424163818359375E-17 0
c p weight -47 1 0
c p weight 48 1 0
c p weight -48 1 0
c p weight -45 1 0
c p weight 45 -1 0
c p weight -49 1 0
c p weight 49 -1 0
c p weight -51 1 0
c p weight 51 -1 0
c p weight -52 1 0
c p weight 52 -1 0
c p weight 56 6.12323399573676603586882014729198302312846062338790031898128063403419218957424163818359375E-17 0
c p weight -56 1 0
c p weight 57 1 0
c p weight -57 1 0
c p weight -54 1 0
c p weight 54 -1 0
c p weight -58 1 0
c p weight 58 -1 0
c p weight -60 1 0
c p weight 60 -1 0
c p weight 64 6.12323399573676603586882014729198302312846062338790031898128063403419218957424163818359375E-17 0
c p weight -64 1 0
c p weight 65 1 0
c p weight -65 1 0
c p weight -62 1 0
c p weight 62 -1 0
c p weight -66 1 0
c p weight 66 -1 0
c p weight -68 1 0
c p weight 68 -1 0
c p weight -69 1 0
c p weight 69 -1 0
c p weight 73 6.12323399573676603586882014729198302312846062338790031898128063403419218957424163818359375E-17 0
c p weight -73 1 0
c p weight 74 1 0
c p weight -74 1 0
c p weight -71 1 0
c p weight 71 -1 0
c p weight -75 1 0
c p weight 75 -1 0
c p weight -77 1 0
c p weight 77 -1 0
c p weight -78 1 0
c p weight 78 -1 0
c p weight -79 1 0
c p weight 79 -1 0
c p weight 83 6.12323399573676603586882014729198302312846062338790031898128063403419218957424163818359375E-17 0
c p weight -83 1 0
c p weight 84 1 0
c p weight -84 1 0
c p weight -81 1 0
c p weight 81 -1 0
c p weight -85 1 0
c p weight 85 -1 0
c p weight -87 1 0
c p weight 87 -1 0
c p weight -90 1 0
c p weight 90 -1 0
c p weight -91 1 0
c p weight 91 -1 0
c p weight 95 6.12323399573676603586882014729198302312846062338790031898128063403419218957424163818359375E-17 0
c p weight -95 1 0
c p weight 96 1 0
c p weight -96 1 0
c p weight -93 1 0
c p weight 93 -1 0
c p weight -97 1 0
c p weight 97 -1 0
c p weight -99 1 0
c p weight 99 -1 0
c p weight -102 1 0
c p weight 102 -1 0
c p weight -103 1 0
c p weight 103 -1 0
c p weight 107 6.12323399573676603586882014729198302312846062338790031898128063403419218957424163818359375E-17 0
c p weight -107 1 0
c p weight 108 1 0
c p weight -108 1 0
c p weight -105 1 0
c p weight 105 -1 0
c p weight -109 1 0
c p weight 109 -1 0
c p weight -111 1 0
c p weight 111 -1 0
c p weight -114 1 0
c p weight 114 -1 0
c p weight 118 6.12323399573676603586882014729198302312846062338790031898128063403419218957424163818359375E-17 0
c p weight -118 1 0
c p weight 119 1 0
c p weight -119 1 0
c p weight -116 1 0
c p weight 116 -1 0
c p weight -120 1 0
c p weight 120 -1 0
c p weight -122 1 0
c p weight 122 -1 0
c p weight -125 1 0
c p weight 125 -1 0
c p weight -126 1 0
c p weight 126 -1 0
c p weight 130 6.12323399573676603586882014729198302312846062338790031898128063403419218957424163818359375E-17 0
c p weight -130 1 0
c p weight 131 1 0
c p weight -131 1 0
c p weight -128 1 0
c p weight 128 -1 0
c p weight -132 1 0
c p weight 132 -1 0
c p weight -134 1 0
c p weight 134 -1 0
c p weight -137 1 0
c p weight 137 -1 0
c p weight 141 6.12323399573676603586882014729198302312846062338790031898128063403419218957424163818359375E-17 0
c p weight -141 1 0
c p weight 142 1 0
c p weight -142 1 0
c p weight -139 1 0
c p weight 139 -1 0
c p weight -143 1 0
c p weight 143 -1 0
c p weight -145 1 0
c p weight 145 -1 0
c p weight -148 1 0
c p weight 148 -1 0
c p weight -149 1 0
c p weight 149 -1 0
c p weight 153 6.12323399573676603586882014729198302312846062338790031898128063403419218957424163818359375E-17 0
c p weight -153 1 0
c p weight 154 1 0
c p weight -154 1 0
c p weight -151 1 0
c p weight 151 -1 0
c p weight -155 1 0
c p weight 155 -1 0
c p weight -157 1 0
c p weight 157 -1 0
c p weight -160 1 0
c p weight 160 -1 0
c p weight -161 1 0
c p weight 161 -1 0
c p weight 165 6.12323399573676603586882014729198302312846062338790031898128063403419218957424163818359375E-17 0
c p weight -165 1 0
c p weight 166 1 0
c p weight -166 1 0
c p weight -163 1 0
c p weight 163 -1 0
c p weight -167 1 0
c p weight 167 -1 0
c p weight 169 0.5 0
c p weight -169 1 0
169 0
-15 0
-13 0
-11 0
-9 0
-7 0
-5 0
-3 0
-1 0
-17 1 0
-17 2 0
17 -1 -2 0
18 1 -2 0
18 -1 2 0
-18 1 2 0
-18 -1 -2 0
-19 20 0
-19 18 0
-19 -1 0
19 -20 1 -18 0
20 -1 18 0
-20 1 18 0
-21 18 0
20 -21 -1 0
-20 -21 1 0
20 21 1 -18 0
-20 21 -1 -18 0
-22 18 0
20 -22 1 0
-20 -22 -1 0
20 22 -1 -18 0
-20 22 1 -18 0
-23 20 0
-23 18 0
23 -20 -18 0
24 20 -18 0
24 -20 18 0
-24 20 18 0
-24 -20 -18 0
25 -24 0
-25 24 0
-26 3 0
-26 4 0
26 -3 -4 0
27 3 -4 0
27 -3 4 0
-27 3 4 0
-27 -3 -4 0
-28 29 0
-28 27 0
-28 -3 0
28 -29 3 -27 0
29 -3 27 0
-29 3 27 0
-30 27 0
29 -30 -3 0
-29 -30 3 0
29 30 3 -27 0
-29 30 -3 -27 0
-31 27 0
29 -31 3 0
-29 -31 -3 0
29 31 -3 -27 0
-29 31 3 -27 0
-32 29 0
-32 27 0
32 -29 -27 0
33 29 -27 0
33 -29 27 0
-33 29 27 0
-33 -29 -27 0
34 -33 0
-34 33 0
-35 5 0
-35 6 0
35 -5 -6 0
36 5 -6 0
36 -5 6 0
-36 5 6 0
-36 -5 -6 0
-37 38 0
-37 36 0
-37 -5 0
37 -38 5 -36 0
38 -5 36 0
-38 5 36 0
-39 36 0
38 -39 -5 0
-38 -39 5 0
38 39 5 -36 0
-38 39 -5 -36 0
-40 36 0
38 -40 5 0
-38 -40 -5 0
38 40 -5 -36 0
-38 40 5 -36 0
-41 38 0
-41 36 0
41 -38 -36 0
42 38 -36 0
42 -38 36 0
-42 38 36 0
-42 -38 -36 0
-43 7 0
-43 8 0
43 -7 -8 0
44 7 -8 0
44 -7 8 0
-44 7 8 0
-44 -7 -8 0
-45 46 0
-45 44 0
-45 -7 0
45 -46 7 -44 0
46 -7 44 0
-46 7 44 0
-47 44 0
46 -47 -7 0
-46 -47 7 0
46 47 7 -44 0
-46 47 -7 -44 0
-48 44 0
46 -48 7 0
-46 -48 -7 0
46 48 -7 -44 0
-46 48 7 -44 0
-49 46 0
-49 44 0
49 -46 -44 0
50 46 -44 0
50 -46 44 0
-50 46 44 0
-50 -46 -44 0
51 -50 0
-51 50 0
-52 9 0
-52 10 0
52 -9 -10 0
53 9 -10 0
53 -9 10 0
-53 9 10 0
-53 -9 -10 0
-54 55 0
-54 53 0
-54 -9 0
54 -55 9 -53 0
55 -9 53 0
-55 9 53 0
-56 53 0
55 -56 -9 0
-55 -56 9 0
55 56 9 -53 0
-55 56 -9 -53 0
-57 53 0
55 -57 9 0
-55 -57 -9 0
55 57 -9 -53 0
-55 57 9 -53 0
-58 55 0
-58 53 0
58 -55 -53 0
59 55 -53 0
59 -55 53 0
-59 55 53 0
-59 -55 -53 0
-60 11 0
-60 12 0
60 -11 -12 0
61 11 -12 0
61 -11 12 0
-61 11 12 0
-61 -11 -12 0
-62 63 0
-62 61 0
-62 -11 0
62 -63 11 -61 0
63 -11 61 0
-63 11 61 0
-64 61 0
63 -64 -11 0
-63 -64 11 0
63 64 11 -61 0
-63 64 -11 -61 0
-65 61 0
63 -65 11 0
-63 -65 -11 0
63 65 -11 -61 0
-63 65 11 -61 0
-66 63 0
-66 61 0
66 -63 -61 0
67 63 -61 0
67 -63 61 0
-67 63 61 0
-67 -63 -61 0
68 -67 0
-68 67 0
-69 13 0
-69 14 0
69 -13 -14 0
70 13 -14 0
70 -13 14 0
-70 13 14 0
-70 -13 -14 0
-71 72 0
-71 70 0
-71 -13 0
71 -72 13 -70 0
72 -13 70 0
-72 13 70 0
-73 70 0
72 -73 -13 0
-72 -73 13 0
72 73 13 -70 0
-72 73 -13 -70 0
-74 70 0
72 -74 13 0
-72 -74 -13 0
72 74 -13 -70 0
-72 74 13 -70 0
-75 72 0
-75 70 0
75 -72 -70 0
76 72 -70 0
76 -72 70 0
-76 72 70 0
-76 -72 -70 0
77 -76 0
-77 76 0
78 -16 0
-78 16 0
-79 15 0
-79 16 0
79 -15 -16 0
80 15 -16 0
80 -15 16 0
-80 15 16 0
-80 -15 -16 0
-81 82 0
-81 80 0
-81 -15 0
81 -82 15 -80 0
82 -15 80 0
-82 15 80 0
-83 80 0
82 -83 -15 0
-82 -83 15 0
82 83 15 -80 0
-82 83 -15 -80 0
-84 80 0
82 -84 15 0
-82 -84 -15 0
82 84 -15 -80 0
-82 84 15 -80 0
-85 82 0
-85 80 0
85 -82 -80 0
86 82 -80 0
86 -82 80 0
-86 82 80 0
-86 -82 -80 0
-87 20 0
-87 86 0
-87 82 -24 0
-87 -82 24 0
87 -20 82 24 -86 0
87 -20 -82 -24 -86 0
89 20 -82 0
89 -20 82 0
-89 20 82 0
-89 -20 -82 0
88 24 -86 0
88 -24 86 0
-88 24 86 0
-88 -24 -86 0
90 -88 0
-90 88 0
-91 20 0
-91 88 0
91 -20 -88 0
92 20 -88 0
92 -20 88 0
-92 20 88 0
-92 -20 -88 0
-93 94 0
-93 92 0
-93 -20 0
93 -94 20 -92 0
94 -20 92 0
-94 20 92 0
-95 92 0
94 -95 -20 0
-94 -95 20 0
94 95 20 -92 0
-94 95 -20 -92 0
-96 92 0
94 -96 20 0
-94 -96 -20 0
94 96 -20 -92 0
-94 96 20 -92 0
-97 94 0
-97 92 0
97 -94 -92 0
98 94 -92 0
98 -94 92 0
-98 94 92 0
-98 -94 -92 0
-99 29 0
-99 86 0
-99 89 -33 0
-99 -89 33 0
99 -29 89 33 -86 0
99 -29 -89 -33 -86 0
101 29 -89 0
101 -29 89 0
-101 29 89 0
-101 -29 -89 0
100 33 -86 0
100 -33 86 0
-100 33 86 0
-100 -33 -86 0
102 -100 0
-102 100 0
-103 29 0
-103 100 0
103 -29 -100 0
104 29 -100 0
104 -29 100 0
-104 29 100 0
-104 -29 -100 0
-105 106 0
-105 104 0
-105 -29 0
105 -106 29 -104 0
106 -29 104 0
-106 29 104 0
-107 104 0
106 -107 -29 0
-106 -107 29 0
106 107 29 -104 0
-106 107 -29 -104 0
-108 104 0
106 -108 29 0
-106 -108 -29 0
106 108 -29 -104 0
-106 108 29 -104 0
-109 106 0
-109 104 0
109 -106 -104 0
110 106 -104 0
110 -106 104 0
-110 106 104 0
-110 -106 -104 0
-111 38 0
-111 86 0
-111 101 -42 0
-111 -101 42 0
111 -38 101 42 -86 0
111 -38 -101 -42 -86 0
113 38 -101 0
113 -38 101 0
-113 38 101 0
-113 -38 -101 0
112 42 -86 0
112 -42 86 0
-112 42 86 0
-112 -42 -86 0
-114 38 0
-114 112 0
114 -38 -112 0
115 38 -112 0
115 -38 112 0
-115 38 112 0
-115 -38 -112 0
-116 117 0
-116 115 0
-116 -38 0
116 -117 38 -115 0
117 -38 115 0
-117 38 115 0
-118 115 0
117 -118 -38 0
-117 -118 38 0
117 118 38 -115 0
-117 118 -38 -115 0
-119 115 0
117 -119 38 0
-117 -119 -38 0
117 119 -38 -115 0
-117 119 38 -115 0
-120 117 0
-120 115 0
120 -117 -115 0
121 117 -115 0
121 -117 115 0
-121 117 115 0
-121 -117 -115 0
-122 46 0
-122 86 0
-122 113 -50 0
-122 -113 50 0
122 -46 113 50 -86 0
122 -46 -113 -50 -86 0
124 46 -113 0
124 -46 113 0
-124 46 113 0
-124 -46 -113 0
123 50 -86 0
123 -50 86 0
-123 50 86 0
-123 -50 -86 0
125 -123 0
-125 123 0
-126 46 0
-126 123 0
126 -46 -123 0
127 46 -123 0
127 -46 123 0
-127 46 123 0
-127 -46 -123 0
-128 129 0
-128 127 0
-128 -46 0
128 -129 46 -127 0
129 -46 127 0
-129 46 127 0
-130 127 0
129 -130 -46 0
-129 -130 46 0
129 130 46 -127 0
-129 130 -46 -127 0
-131 127 0
129 -131 46 0
-129 -131 -46 0
129 131 -46 -127 0
-129 131 46 -127 0
-132 129 0
-132 127 0
132 -129 -127 0
133 129 -127 0
133 -129 127 0
-133 129 127 0
-133 -129 -127 0
-134 55 0
-134 86 0
-134 124 -59 0
-134 -124 59 0
134 -55 124 59 -86 0
134 -55 -124 -59 -86 0
136 55 -124 0
136 -55 124 0
-136 55 124 0
-136 -55 -124 0
135 59 -86 0
135 -59 86 0
-135 59 86 0
-135 -59 -86 0
-137 55 0
-137 135 0
137 -55 -135 0
138 55 -135 0
138 -55 135 0
-138 55 135 0
-138 -55 -135 0
-139 140 0
-139 138 0
-139 -55 0
139 -140 55 -138 0
140 -55 138 0
-140 55 138 0
-141 138 0
140 -141 -55 0
-140 -141 55 0
140 141 55 -138 0
-140 141 -55 -138 0
-142 138 0
140 -142 55 0
-140 -142 -55 0
140 142 -55 -138 0
-140 142 55 -138 0
-143 140 0
-143 138 0
143 -140 -138 0
144 140 -138 0
144 -140 138 0
-144 140 138 0
-144 -140 -138 0
-145 63 0
-145 86 0
-145 136 -67 0
-145 -136 67 0
145 -63 136 67 -86 0
145 -63 -136 -67 -86 0
147 63 -136 0
147 -63 136 0
-147 63 136 0
-147 -63 -136 0
146 67 -86 0
146 -67 86 0
-146 67 86 0
-146 -67 -86 0
148 -146 0
-148 146 0
-149 63 0
-149 146 0
149 -63 -146 0
150 63 -146 0
150 -63 146 0
-150 63 146 0
-150 -63 -146 0
-151 152 0
-151 150 0
-151 -63 0
151 -152 63 -150 0
152 -63 150 0
-152 63 150 0
-153 150 0
152 -153 -63 0
-152 -153 63 0
152 153 63 -150 0
-152 153 -63 -150 0
-154 150 0
152 -154 63 0
-152 -154 -63 0
152 154 -63 -150 0
-152 154 63 -150 0
-155 152 0
-155 150 0
155 -152 -150 0
156 152 -150 0
156 -152 150 0
-156 152 150 0
-156 -152 -150 0
-157 72 0
-157 86 0
-157 147 -76 0
-157 -147 76 0
157 -72 147 76 -86 0
157 -72 -147 -76 -86 0
159 72 -147 0
159 -72 147 0
-159 72 147 0
-159 -72 -147 0
158 76 -86 0
158 -76 86 0
-158 76 86 0
-158 -76 -86 0
160 -158 0
-160 158 0
-161 72 0
-161 158 0
161 -72 -158 0
162 72 -158 0
162 -72 158 0
-162 72 158 0
-162 -72 -158 0
-163 164 0
-163 162 0
-163 -72 0
163 -164 72 -162 0
164 -72 162 0
-164 72 162 0
-165 162 0
164 -165 -72 0
-164 -165 72 0
164 165 72 -162 0
-164 165 -72 -162 0
-166 162 0
164 -166 72 0
-164 -166 -72 0
164 166 -72 -162 0
-164 166 72 -162 0
-167 164 0
-167 162 0
167 -164 -162 0
168 164 -162 0
168 -164 162 0
-168 164 162 0
-168 -164 -162 0
-94 0
-106 0
-110 0
-117 0
-121 0
-129 0
-133 0
-140 0
-144 0
-152 0
-156 0
-164 0
-168 0
-159 0
-86 0
